5 5
0 80 3 2 1 35 2 98 4 22
0 83 2 64 4 59 3 49 1 52
3 21 2 12 0 11 1 54 4 83
0 70 2 14 4 33 3 77 1 26
1 14 2 88 0 48 3 65 4 46
-1
0 2 4 5
0 2 5
0 3 5
0 4 5
0 1 2 3 5
-2
123 269 360
220 410
55 194
251 221
20 114 233 365

447 8
15 5 12 0 22
20 13 2 19 9
21 16 11 6 3
10 18 1 8 23
17 7 14 4 24
